array [1..576] of int: X_INTRODUCED_53_ = [1,1,1,1,1,1,1,1,1,1,1,1,1,1,1,1,1,1,2,2,2,2,2,2,2,2,2,2,2,2,2,2,2,2,2,2,3,3,3,3,3,3,3,3,3,3,3,3,3,3,3,3,3,3,4,4,4,4,4,4,4,4,4,4,4,4,4,4,4,4,4,4,5,5,5,5,5,5,5,5,5,5,5,5,5,5,5,5,5,5,6,6,6,6,6,6,6,6,6,6,6,6,6,6,6,6,6,6,7,7,7,7,7,7,7,7,7,7,7,7,7,7,7,7,7,7,8,8,8,8,8,8,8,8,8,8,8,8,8,8,8,8,8,8,9,9,9,9,9,9,9,9,9,9,9,9,9,9,9,9,9,9,10,10,10,10,10,10,10,10,10,10,10,10,10,10,10,10,10,10,11,11,11,11,11,11,11,11,11,11,11,11,11,11,11,11,11,11,12,12,12,12,12,12,12,12,12,12,12,12,12,12,12,12,12,12,13,13,13,13,13,13,13,13,13,13,13,13,13,13,13,13,13,13,14,14,14,14,14,14,14,14,14,14,14,14,14,14,14,14,14,14,15,15,15,15,15,15,15,15,15,15,15,15,15,15,15,15,15,15,16,16,16,16,16,16,16,16,16,16,16,16,16,16,16,16,16,16,17,17,17,17,17,17,17,17,17,17,17,17,17,17,17,17,17,17,18,18,18,18,18,18,18,18,18,18,18,18,18,18,18,18,18,18,19,19,19,19,19,19,19,19,19,19,19,19,19,19,19,19,19,19,20,20,20,20,20,20,20,20,20,20,20,20,20,20,20,20,20,20,21,21,21,21,21,21,21,21,21,21,21,21,21,21,21,21,21,21,22,22,22,22,22,22,22,22,22,22,22,22,22,22,22,22,22,22,23,23,23,23,23,23,23,23,23,23,23,23,23,23,23,23,23,23,24,24,24,24,24,24,24,24,24,24,24,24,24,24,24,24,24,24,25,25,25,25,25,25,25,25,25,25,25,25,25,25,25,25,25,25,26,26,26,26,26,26,26,26,26,26,26,26,26,26,26,26,26,26,27,27,27,27,27,27,27,27,27,27,27,27,27,27,27,27,27,27,28,28,28,28,28,28,28,28,28,28,28,28,28,28,28,28,28,28,29,29,29,29,29,29,29,29,29,29,29,29,29,29,29,29,29,29,30,30,30,30,30,30,30,30,30,30,30,30,30,30,30,30,30,30,31,31,31,31,31,31,31,31,31,31,31,31,31,31,31,31,31,31,32,32,32,32,32,32,32,32,32,32,32,32,32,32,32,32,32,32];
array [1..576] of int: X_INTRODUCED_55_ = [2,3,4,5,6,7,8,9,10,24,25,26,27,28,29,30,31,32,1,3,4,5,6,7,8,9,10,11,25,26,27,28,29,30,31,32,1,2,4,5,6,7,8,9,10,11,12,26,27,28,29,30,31,32,1,2,3,5,6,7,8,9,10,11,12,13,27,28,29,30,31,32,1,2,3,4,6,7,8,9,10,11,12,13,14,28,29,30,31,32,1,2,3,4,5,7,8,9,10,11,12,13,14,15,29,30,31,32,1,2,3,4,5,6,8,9,10,11,12,13,14,15,16,30,31,32,1,2,3,4,5,6,7,9,10,11,12,13,14,15,16,17,31,32,1,2,3,4,5,6,7,8,10,11,12,13,14,15,16,17,18,32,1,2,3,4,5,6,7,8,9,11,12,13,14,15,16,17,18,19,2,3,4,5,6,7,8,9,10,12,13,14,15,16,17,18,19,20,3,4,5,6,7,8,9,10,11,13,14,15,16,17,18,19,20,21,4,5,6,7,8,9,10,11,12,14,15,16,17,18,19,20,21,22,5,6,7,8,9,10,11,12,13,15,16,17,18,19,20,21,22,23,6,7,8,9,10,11,12,13,14,16,17,18,19,20,21,22,23,24,7,8,9,10,11,12,13,14,15,17,18,19,20,21,22,23,24,25,8,9,10,11,12,13,14,15,16,18,19,20,21,22,23,24,25,26,9,10,11,12,13,14,15,16,17,19,20,21,22,23,24,25,26,27,10,11,12,13,14,15,16,17,18,20,21,22,23,24,25,26,27,28,11,12,13,14,15,16,17,18,19,21,22,23,24,25,26,27,28,29,12,13,14,15,16,17,18,19,20,22,23,24,25,26,27,28,29,30,13,14,15,16,17,18,19,20,21,23,24,25,26,27,28,29,30,31,14,15,16,17,18,19,20,21,22,24,25,26,27,28,29,30,31,32,1,15,16,17,18,19,20,21,22,23,25,26,27,28,29,30,31,32,1,2,16,17,18,19,20,21,22,23,24,26,27,28,29,30,31,32,1,2,3,17,18,19,20,21,22,23,24,25,27,28,29,30,31,32,1,2,3,4,18,19,20,21,22,23,24,25,26,28,29,30,31,32,1,2,3,4,5,19,20,21,22,23,24,25,26,27,29,30,31,32,1,2,3,4,5,6,20,21,22,23,24,25,26,27,28,30,31,32,1,2,3,4,5,6,7,21,22,23,24,25,26,27,28,29,31,32,1,2,3,4,5,6,7,8,22,23,24,25,26,27,28,29,30,32,1,2,3,4,5,6,7,8,9,23,24,25,26,27,28,29,30,31];
var 1..32: X_INTRODUCED_17_:: is_defined_var;
var 1..32: X_INTRODUCED_18_:: is_defined_var;
var 1..32: X_INTRODUCED_19_:: is_defined_var;
var 1..32: X_INTRODUCED_20_:: is_defined_var;
var 1..32: X_INTRODUCED_21_:: is_defined_var;
var 1..32: X_INTRODUCED_22_:: is_defined_var;
var 1..32: X_INTRODUCED_23_:: is_defined_var;
var 1..32: X_INTRODUCED_24_:: is_defined_var;
var 1..32: X_INTRODUCED_25_:: is_defined_var;
var 1..32: X_INTRODUCED_26_:: is_defined_var;
var 1..32: X_INTRODUCED_27_:: is_defined_var;
var 1..32: X_INTRODUCED_28_:: is_defined_var;
var 1..32: X_INTRODUCED_29_:: is_defined_var;
var 1..32: X_INTRODUCED_30_:: is_defined_var;
var 1..32: X_INTRODUCED_31_:: is_defined_var;
var 16..16: X_INTRODUCED_32_;
var 1..32: X_INTRODUCED_33_:: is_defined_var;
var 1..32: X_INTRODUCED_34_:: is_defined_var;
var 1..32: X_INTRODUCED_35_:: is_defined_var;
var 1..32: X_INTRODUCED_36_:: is_defined_var;
var 1..32: X_INTRODUCED_37_:: is_defined_var;
var 1..32: X_INTRODUCED_38_:: is_defined_var;
var 1..32: X_INTRODUCED_39_:: is_defined_var;
var 1..32: X_INTRODUCED_40_:: is_defined_var;
var 1..32: X_INTRODUCED_41_:: is_defined_var;
var 1..32: X_INTRODUCED_42_:: is_defined_var;
var 1..32: X_INTRODUCED_43_:: is_defined_var;
var 1..32: X_INTRODUCED_44_:: is_defined_var;
var 1..32: X_INTRODUCED_45_:: is_defined_var;
var 1..32: X_INTRODUCED_46_:: is_defined_var;
var 1..32: X_INTRODUCED_47_:: is_defined_var;
var 1..32: X_INTRODUCED_48_:: is_defined_var;
var 1..576: X_INTRODUCED_51_ ::var_is_introduced ;
var 1..576: X_INTRODUCED_58_ ::var_is_introduced ;
var 1..576: X_INTRODUCED_62_ ::var_is_introduced ;
var 1..576: X_INTRODUCED_66_ ::var_is_introduced ;
var 1..576: X_INTRODUCED_70_ ::var_is_introduced ;
var 1..576: X_INTRODUCED_74_ ::var_is_introduced ;
var 1..576: X_INTRODUCED_78_ ::var_is_introduced ;
var 1..576: X_INTRODUCED_82_ ::var_is_introduced ;
var 1..576: X_INTRODUCED_86_ ::var_is_introduced ;
var 1..576: X_INTRODUCED_90_ ::var_is_introduced ;
var 1..576: X_INTRODUCED_94_ ::var_is_introduced ;
var 1..576: X_INTRODUCED_98_ ::var_is_introduced ;
var 1..576: X_INTRODUCED_102_ ::var_is_introduced ;
var 1..576: X_INTRODUCED_106_ ::var_is_introduced ;
var 1..576: X_INTRODUCED_110_ ::var_is_introduced ;
var 1..576: X_INTRODUCED_114_ ::var_is_introduced ;
var 1..576: X_INTRODUCED_118_ ::var_is_introduced ;
var 1..576: X_INTRODUCED_122_ ::var_is_introduced ;
var 1..576: X_INTRODUCED_126_ ::var_is_introduced ;
var 1..576: X_INTRODUCED_130_ ::var_is_introduced ;
var 1..576: X_INTRODUCED_134_ ::var_is_introduced ;
var 1..576: X_INTRODUCED_138_ ::var_is_introduced ;
var 1..576: X_INTRODUCED_142_ ::var_is_introduced ;
var 1..576: X_INTRODUCED_146_ ::var_is_introduced ;
var 1..576: X_INTRODUCED_150_ ::var_is_introduced ;
var 1..576: X_INTRODUCED_154_ ::var_is_introduced ;
var 1..576: X_INTRODUCED_158_ ::var_is_introduced ;
var 1..576: X_INTRODUCED_162_ ::var_is_introduced ;
var 1..576: X_INTRODUCED_166_ ::var_is_introduced ;
var 1..576: X_INTRODUCED_170_ ::var_is_introduced ;
var 1..576: X_INTRODUCED_174_ ::var_is_introduced ;
var 1..576: X_INTRODUCED_178_ ::var_is_introduced ;
var 1..576: X_INTRODUCED_182_ ::var_is_introduced ;
var 1..576: X_INTRODUCED_186_ ::var_is_introduced ;
var 1..576: X_INTRODUCED_190_ ::var_is_introduced ;
var 1..576: X_INTRODUCED_194_ ::var_is_introduced ;
var 1..576: X_INTRODUCED_198_ ::var_is_introduced ;
var 1..576: X_INTRODUCED_202_ ::var_is_introduced ;
var 1..576: X_INTRODUCED_206_ ::var_is_introduced ;
var 1..576: X_INTRODUCED_210_ ::var_is_introduced ;
var 1..576: X_INTRODUCED_214_ ::var_is_introduced ;
var 1..576: X_INTRODUCED_218_ ::var_is_introduced ;
var 1..576: X_INTRODUCED_222_ ::var_is_introduced ;
var 1..576: X_INTRODUCED_226_ ::var_is_introduced ;
var 1..576: X_INTRODUCED_230_ ::var_is_introduced ;
var 1..576: X_INTRODUCED_234_ ::var_is_introduced ;
var 1..576: X_INTRODUCED_238_ ::var_is_introduced ;
var 1..576: X_INTRODUCED_242_ ::var_is_introduced ;
var 1..576: X_INTRODUCED_246_ ::var_is_introduced ;
var 1..576: X_INTRODUCED_250_ ::var_is_introduced ;
var 1..576: X_INTRODUCED_254_ ::var_is_introduced ;
var 1..576: X_INTRODUCED_258_ ::var_is_introduced ;
var 1..576: X_INTRODUCED_262_ ::var_is_introduced ;
var 1..576: X_INTRODUCED_266_ ::var_is_introduced ;
var 1..576: X_INTRODUCED_270_ ::var_is_introduced ;
var 1..576: X_INTRODUCED_274_ ::var_is_introduced ;
var 1..576: X_INTRODUCED_278_ ::var_is_introduced ;
var 1..576: X_INTRODUCED_282_ ::var_is_introduced ;
var 1..576: X_INTRODUCED_286_ ::var_is_introduced ;
var 1..576: X_INTRODUCED_290_ ::var_is_introduced ;
var 1..576: X_INTRODUCED_294_ ::var_is_introduced ;
var 1..576: X_INTRODUCED_298_ ::var_is_introduced ;
var 1..576: X_INTRODUCED_302_ ::var_is_introduced ;
var 1..576: X_INTRODUCED_306_ ::var_is_introduced ;
var 1..576: X_INTRODUCED_310_ ::var_is_introduced ;
var 1..576: X_INTRODUCED_314_ ::var_is_introduced ;
var 1..576: X_INTRODUCED_318_ ::var_is_introduced ;
var 1..576: X_INTRODUCED_322_ ::var_is_introduced ;
var 1..576: X_INTRODUCED_326_ ::var_is_introduced ;
var 1..576: X_INTRODUCED_330_ ::var_is_introduced ;
var 1..576: X_INTRODUCED_334_ ::var_is_introduced ;
var 1..576: X_INTRODUCED_338_ ::var_is_introduced ;
var 1..576: X_INTRODUCED_342_ ::var_is_introduced ;
var 1..576: X_INTRODUCED_346_ ::var_is_introduced ;
var 1..576: X_INTRODUCED_350_ ::var_is_introduced ;
var 1..576: X_INTRODUCED_354_ ::var_is_introduced ;
var 1..576: X_INTRODUCED_358_ ::var_is_introduced ;
var 1..576: X_INTRODUCED_362_ ::var_is_introduced ;
var 1..576: X_INTRODUCED_366_ ::var_is_introduced ;
var 1..576: X_INTRODUCED_370_ ::var_is_introduced ;
var 1..576: X_INTRODUCED_374_ ::var_is_introduced ;
var 1..576: X_INTRODUCED_378_ ::var_is_introduced ;
var 1..576: X_INTRODUCED_382_ ::var_is_introduced ;
var 1..576: X_INTRODUCED_386_ ::var_is_introduced ;
var 1..576: X_INTRODUCED_390_ ::var_is_introduced ;
var 1..576: X_INTRODUCED_394_ ::var_is_introduced ;
var 1..576: X_INTRODUCED_398_ ::var_is_introduced ;
var 1..576: X_INTRODUCED_402_ ::var_is_introduced ;
var 1..576: X_INTRODUCED_406_ ::var_is_introduced ;
var 1..576: X_INTRODUCED_410_ ::var_is_introduced ;
array [1..32] of var int: labels:: output_array([1..32]) = [X_INTRODUCED_17_,X_INTRODUCED_18_,X_INTRODUCED_19_,X_INTRODUCED_20_,X_INTRODUCED_21_,X_INTRODUCED_22_,X_INTRODUCED_23_,X_INTRODUCED_24_,X_INTRODUCED_25_,X_INTRODUCED_26_,X_INTRODUCED_27_,X_INTRODUCED_28_,X_INTRODUCED_29_,X_INTRODUCED_30_,X_INTRODUCED_31_,16,X_INTRODUCED_33_,X_INTRODUCED_34_,X_INTRODUCED_35_,X_INTRODUCED_36_,X_INTRODUCED_37_,X_INTRODUCED_38_,X_INTRODUCED_39_,X_INTRODUCED_40_,X_INTRODUCED_41_,X_INTRODUCED_42_,X_INTRODUCED_43_,X_INTRODUCED_44_,X_INTRODUCED_45_,X_INTRODUCED_46_,X_INTRODUCED_47_,X_INTRODUCED_48_];
constraint array_int_element(X_INTRODUCED_51_,X_INTRODUCED_53_,X_INTRODUCED_17_):: defines_var(X_INTRODUCED_17_);
constraint array_int_element(X_INTRODUCED_51_,X_INTRODUCED_55_,X_INTRODUCED_23_):: defines_var(X_INTRODUCED_23_);
constraint array_int_element(X_INTRODUCED_58_,X_INTRODUCED_53_,X_INTRODUCED_17_);
constraint array_int_element(X_INTRODUCED_58_,X_INTRODUCED_55_,X_INTRODUCED_30_):: defines_var(X_INTRODUCED_30_);
constraint array_int_element(X_INTRODUCED_62_,X_INTRODUCED_53_,X_INTRODUCED_17_);
constraint array_int_element(X_INTRODUCED_62_,X_INTRODUCED_55_,16);
constraint array_int_element(X_INTRODUCED_66_,X_INTRODUCED_53_,X_INTRODUCED_18_):: defines_var(X_INTRODUCED_18_);
constraint array_int_element(X_INTRODUCED_66_,X_INTRODUCED_55_,X_INTRODUCED_25_):: defines_var(X_INTRODUCED_25_);
constraint array_int_element(X_INTRODUCED_70_,X_INTRODUCED_53_,X_INTRODUCED_18_);
constraint array_int_element(X_INTRODUCED_70_,X_INTRODUCED_55_,X_INTRODUCED_38_):: defines_var(X_INTRODUCED_38_);
constraint array_int_element(X_INTRODUCED_74_,X_INTRODUCED_53_,X_INTRODUCED_18_);
constraint array_int_element(X_INTRODUCED_74_,X_INTRODUCED_55_,X_INTRODUCED_39_):: defines_var(X_INTRODUCED_39_);
constraint array_int_element(X_INTRODUCED_78_,X_INTRODUCED_53_,X_INTRODUCED_18_);
constraint array_int_element(X_INTRODUCED_78_,X_INTRODUCED_55_,X_INTRODUCED_43_):: defines_var(X_INTRODUCED_43_);
constraint array_int_element(X_INTRODUCED_82_,X_INTRODUCED_53_,X_INTRODUCED_18_);
constraint array_int_element(X_INTRODUCED_82_,X_INTRODUCED_55_,X_INTRODUCED_47_):: defines_var(X_INTRODUCED_47_);
constraint array_int_element(X_INTRODUCED_86_,X_INTRODUCED_53_,X_INTRODUCED_19_):: defines_var(X_INTRODUCED_19_);
constraint array_int_element(X_INTRODUCED_86_,X_INTRODUCED_55_,X_INTRODUCED_22_):: defines_var(X_INTRODUCED_22_);
constraint array_int_element(X_INTRODUCED_90_,X_INTRODUCED_53_,X_INTRODUCED_19_);
constraint array_int_element(X_INTRODUCED_90_,X_INTRODUCED_55_,X_INTRODUCED_39_);
constraint array_int_element(X_INTRODUCED_94_,X_INTRODUCED_53_,X_INTRODUCED_19_);
constraint array_int_element(X_INTRODUCED_94_,X_INTRODUCED_55_,X_INTRODUCED_44_):: defines_var(X_INTRODUCED_44_);
constraint array_int_element(X_INTRODUCED_98_,X_INTRODUCED_53_,X_INTRODUCED_19_);
constraint array_int_element(X_INTRODUCED_98_,X_INTRODUCED_55_,X_INTRODUCED_46_):: defines_var(X_INTRODUCED_46_);
constraint array_int_element(X_INTRODUCED_102_,X_INTRODUCED_53_,X_INTRODUCED_19_);
constraint array_int_element(X_INTRODUCED_102_,X_INTRODUCED_55_,X_INTRODUCED_47_);
constraint array_int_element(X_INTRODUCED_106_,X_INTRODUCED_53_,X_INTRODUCED_20_):: defines_var(X_INTRODUCED_20_);
constraint array_int_element(X_INTRODUCED_106_,X_INTRODUCED_55_,X_INTRODUCED_24_):: defines_var(X_INTRODUCED_24_);
constraint array_int_element(X_INTRODUCED_110_,X_INTRODUCED_53_,X_INTRODUCED_20_);
constraint array_int_element(X_INTRODUCED_110_,X_INTRODUCED_55_,X_INTRODUCED_25_);
constraint array_int_element(X_INTRODUCED_114_,X_INTRODUCED_53_,X_INTRODUCED_20_);
constraint array_int_element(X_INTRODUCED_114_,X_INTRODUCED_55_,X_INTRODUCED_26_):: defines_var(X_INTRODUCED_26_);
constraint array_int_element(X_INTRODUCED_118_,X_INTRODUCED_53_,X_INTRODUCED_20_);
constraint array_int_element(X_INTRODUCED_118_,X_INTRODUCED_55_,X_INTRODUCED_37_):: defines_var(X_INTRODUCED_37_);
constraint array_int_element(X_INTRODUCED_122_,X_INTRODUCED_53_,X_INTRODUCED_20_);
constraint array_int_element(X_INTRODUCED_122_,X_INTRODUCED_55_,X_INTRODUCED_40_):: defines_var(X_INTRODUCED_40_);
constraint array_int_element(X_INTRODUCED_126_,X_INTRODUCED_53_,X_INTRODUCED_20_);
constraint array_int_element(X_INTRODUCED_126_,X_INTRODUCED_55_,X_INTRODUCED_42_):: defines_var(X_INTRODUCED_42_);
constraint array_int_element(X_INTRODUCED_130_,X_INTRODUCED_53_,X_INTRODUCED_20_);
constraint array_int_element(X_INTRODUCED_130_,X_INTRODUCED_55_,X_INTRODUCED_44_);
constraint array_int_element(X_INTRODUCED_134_,X_INTRODUCED_53_,X_INTRODUCED_21_):: defines_var(X_INTRODUCED_21_);
constraint array_int_element(X_INTRODUCED_134_,X_INTRODUCED_55_,X_INTRODUCED_33_):: defines_var(X_INTRODUCED_33_);
constraint array_int_element(X_INTRODUCED_138_,X_INTRODUCED_53_,X_INTRODUCED_21_);
constraint array_int_element(X_INTRODUCED_138_,X_INTRODUCED_55_,X_INTRODUCED_36_):: defines_var(X_INTRODUCED_36_);
constraint array_int_element(X_INTRODUCED_142_,X_INTRODUCED_53_,X_INTRODUCED_21_);
constraint array_int_element(X_INTRODUCED_142_,X_INTRODUCED_55_,X_INTRODUCED_40_);
constraint array_int_element(X_INTRODUCED_146_,X_INTRODUCED_53_,X_INTRODUCED_21_);
constraint array_int_element(X_INTRODUCED_146_,X_INTRODUCED_55_,X_INTRODUCED_47_);
constraint array_int_element(X_INTRODUCED_150_,X_INTRODUCED_53_,X_INTRODUCED_22_);
constraint array_int_element(X_INTRODUCED_150_,X_INTRODUCED_55_,X_INTRODUCED_27_):: defines_var(X_INTRODUCED_27_);
constraint array_int_element(X_INTRODUCED_154_,X_INTRODUCED_53_,X_INTRODUCED_22_);
constraint array_int_element(X_INTRODUCED_154_,X_INTRODUCED_55_,X_INTRODUCED_31_):: defines_var(X_INTRODUCED_31_);
constraint array_int_element(X_INTRODUCED_158_,X_INTRODUCED_53_,X_INTRODUCED_22_);
constraint array_int_element(X_INTRODUCED_158_,X_INTRODUCED_55_,X_INTRODUCED_42_);
constraint array_int_element(X_INTRODUCED_162_,X_INTRODUCED_53_,X_INTRODUCED_23_);
constraint array_int_element(X_INTRODUCED_162_,X_INTRODUCED_55_,X_INTRODUCED_30_);
constraint array_int_element(X_INTRODUCED_166_,X_INTRODUCED_53_,X_INTRODUCED_23_);
constraint array_int_element(X_INTRODUCED_166_,X_INTRODUCED_55_,16);
constraint array_int_element(X_INTRODUCED_170_,X_INTRODUCED_53_,X_INTRODUCED_23_);
constraint array_int_element(X_INTRODUCED_170_,X_INTRODUCED_55_,X_INTRODUCED_34_):: defines_var(X_INTRODUCED_34_);
constraint array_int_element(X_INTRODUCED_174_,X_INTRODUCED_53_,X_INTRODUCED_23_);
constraint array_int_element(X_INTRODUCED_174_,X_INTRODUCED_55_,X_INTRODUCED_37_);
constraint array_int_element(X_INTRODUCED_178_,X_INTRODUCED_53_,X_INTRODUCED_23_);
constraint array_int_element(X_INTRODUCED_178_,X_INTRODUCED_55_,X_INTRODUCED_40_);
constraint array_int_element(X_INTRODUCED_182_,X_INTRODUCED_53_,X_INTRODUCED_24_);
constraint array_int_element(X_INTRODUCED_182_,X_INTRODUCED_55_,16);
constraint array_int_element(X_INTRODUCED_186_,X_INTRODUCED_53_,X_INTRODUCED_24_);
constraint array_int_element(X_INTRODUCED_186_,X_INTRODUCED_55_,X_INTRODUCED_33_);
constraint array_int_element(X_INTRODUCED_190_,X_INTRODUCED_53_,X_INTRODUCED_24_);
constraint array_int_element(X_INTRODUCED_190_,X_INTRODUCED_55_,X_INTRODUCED_38_);
constraint array_int_element(X_INTRODUCED_194_,X_INTRODUCED_53_,X_INTRODUCED_24_);
constraint array_int_element(X_INTRODUCED_194_,X_INTRODUCED_55_,X_INTRODUCED_48_):: defines_var(X_INTRODUCED_48_);
constraint array_int_element(X_INTRODUCED_198_,X_INTRODUCED_53_,X_INTRODUCED_25_);
constraint array_int_element(X_INTRODUCED_198_,X_INTRODUCED_55_,X_INTRODUCED_26_);
constraint array_int_element(X_INTRODUCED_202_,X_INTRODUCED_53_,X_INTRODUCED_25_);
constraint array_int_element(X_INTRODUCED_202_,X_INTRODUCED_55_,X_INTRODUCED_46_);
constraint array_int_element(X_INTRODUCED_206_,X_INTRODUCED_53_,X_INTRODUCED_26_);
constraint array_int_element(X_INTRODUCED_206_,X_INTRODUCED_55_,X_INTRODUCED_38_);
constraint array_int_element(X_INTRODUCED_210_,X_INTRODUCED_53_,X_INTRODUCED_26_);
constraint array_int_element(X_INTRODUCED_210_,X_INTRODUCED_55_,X_INTRODUCED_43_);
constraint array_int_element(X_INTRODUCED_214_,X_INTRODUCED_53_,X_INTRODUCED_26_);
constraint array_int_element(X_INTRODUCED_214_,X_INTRODUCED_55_,X_INTRODUCED_45_):: defines_var(X_INTRODUCED_45_);
constraint array_int_element(X_INTRODUCED_218_,X_INTRODUCED_53_,X_INTRODUCED_27_);
constraint array_int_element(X_INTRODUCED_218_,X_INTRODUCED_55_,X_INTRODUCED_28_):: defines_var(X_INTRODUCED_28_);
constraint array_int_element(X_INTRODUCED_222_,X_INTRODUCED_53_,X_INTRODUCED_27_);
constraint array_int_element(X_INTRODUCED_222_,X_INTRODUCED_55_,X_INTRODUCED_33_);
constraint array_int_element(X_INTRODUCED_226_,X_INTRODUCED_53_,X_INTRODUCED_27_);
constraint array_int_element(X_INTRODUCED_226_,X_INTRODUCED_55_,X_INTRODUCED_41_):: defines_var(X_INTRODUCED_41_);
constraint array_int_element(X_INTRODUCED_230_,X_INTRODUCED_53_,X_INTRODUCED_27_);
constraint array_int_element(X_INTRODUCED_230_,X_INTRODUCED_55_,X_INTRODUCED_42_);
constraint array_int_element(X_INTRODUCED_234_,X_INTRODUCED_53_,X_INTRODUCED_27_);
constraint array_int_element(X_INTRODUCED_234_,X_INTRODUCED_55_,X_INTRODUCED_44_);
constraint array_int_element(X_INTRODUCED_238_,X_INTRODUCED_53_,X_INTRODUCED_27_);
constraint array_int_element(X_INTRODUCED_238_,X_INTRODUCED_55_,X_INTRODUCED_46_);
constraint array_int_element(X_INTRODUCED_242_,X_INTRODUCED_53_,X_INTRODUCED_28_);
constraint array_int_element(X_INTRODUCED_242_,X_INTRODUCED_55_,X_INTRODUCED_30_);
constraint array_int_element(X_INTRODUCED_246_,X_INTRODUCED_53_,X_INTRODUCED_28_);
constraint array_int_element(X_INTRODUCED_246_,X_INTRODUCED_55_,X_INTRODUCED_35_):: defines_var(X_INTRODUCED_35_);
constraint array_int_element(X_INTRODUCED_250_,X_INTRODUCED_53_,X_INTRODUCED_28_);
constraint array_int_element(X_INTRODUCED_250_,X_INTRODUCED_55_,X_INTRODUCED_37_);
constraint array_int_element(X_INTRODUCED_254_,X_INTRODUCED_53_,X_INTRODUCED_29_):: defines_var(X_INTRODUCED_29_);
constraint array_int_element(X_INTRODUCED_254_,X_INTRODUCED_55_,X_INTRODUCED_34_);
constraint array_int_element(X_INTRODUCED_258_,X_INTRODUCED_53_,X_INTRODUCED_29_);
constraint array_int_element(X_INTRODUCED_258_,X_INTRODUCED_55_,X_INTRODUCED_35_);
constraint array_int_element(X_INTRODUCED_262_,X_INTRODUCED_53_,X_INTRODUCED_29_);
constraint array_int_element(X_INTRODUCED_262_,X_INTRODUCED_55_,X_INTRODUCED_37_);
constraint array_int_element(X_INTRODUCED_266_,X_INTRODUCED_53_,X_INTRODUCED_31_);
constraint array_int_element(X_INTRODUCED_266_,X_INTRODUCED_55_,X_INTRODUCED_43_);
constraint array_int_element(X_INTRODUCED_270_,X_INTRODUCED_53_,X_INTRODUCED_31_);
constraint array_int_element(X_INTRODUCED_270_,X_INTRODUCED_55_,X_INTRODUCED_45_);
constraint array_int_element(X_INTRODUCED_274_,X_INTRODUCED_53_,X_INTRODUCED_31_);
constraint array_int_element(X_INTRODUCED_274_,X_INTRODUCED_55_,X_INTRODUCED_46_);
constraint array_int_element(X_INTRODUCED_278_,X_INTRODUCED_53_,16);
constraint array_int_element(X_INTRODUCED_278_,X_INTRODUCED_55_,X_INTRODUCED_33_);
constraint array_int_element(X_INTRODUCED_282_,X_INTRODUCED_53_,16);
constraint array_int_element(X_INTRODUCED_282_,X_INTRODUCED_55_,X_INTRODUCED_34_);
constraint array_int_element(X_INTRODUCED_286_,X_INTRODUCED_53_,16);
constraint array_int_element(X_INTRODUCED_286_,X_INTRODUCED_55_,X_INTRODUCED_37_);
constraint array_int_element(X_INTRODUCED_290_,X_INTRODUCED_53_,16);
constraint array_int_element(X_INTRODUCED_290_,X_INTRODUCED_55_,X_INTRODUCED_38_);
constraint array_int_element(X_INTRODUCED_294_,X_INTRODUCED_53_,16);
constraint array_int_element(X_INTRODUCED_294_,X_INTRODUCED_55_,X_INTRODUCED_39_);
constraint array_int_element(X_INTRODUCED_298_,X_INTRODUCED_53_,16);
constraint array_int_element(X_INTRODUCED_298_,X_INTRODUCED_55_,X_INTRODUCED_40_);
constraint array_int_element(X_INTRODUCED_302_,X_INTRODUCED_53_,16);
constraint array_int_element(X_INTRODUCED_302_,X_INTRODUCED_55_,X_INTRODUCED_42_);
constraint array_int_element(X_INTRODUCED_306_,X_INTRODUCED_53_,16);
constraint array_int_element(X_INTRODUCED_306_,X_INTRODUCED_55_,X_INTRODUCED_43_);
constraint array_int_element(X_INTRODUCED_310_,X_INTRODUCED_53_,X_INTRODUCED_33_);
constraint array_int_element(X_INTRODUCED_310_,X_INTRODUCED_55_,X_INTRODUCED_48_);
constraint array_int_element(X_INTRODUCED_314_,X_INTRODUCED_53_,X_INTRODUCED_34_);
constraint array_int_element(X_INTRODUCED_314_,X_INTRODUCED_55_,X_INTRODUCED_35_);
constraint array_int_element(X_INTRODUCED_318_,X_INTRODUCED_53_,X_INTRODUCED_34_);
constraint array_int_element(X_INTRODUCED_318_,X_INTRODUCED_55_,X_INTRODUCED_38_);
constraint array_int_element(X_INTRODUCED_322_,X_INTRODUCED_53_,X_INTRODUCED_34_);
constraint array_int_element(X_INTRODUCED_322_,X_INTRODUCED_55_,X_INTRODUCED_39_);
constraint array_int_element(X_INTRODUCED_326_,X_INTRODUCED_53_,X_INTRODUCED_34_);
constraint array_int_element(X_INTRODUCED_326_,X_INTRODUCED_55_,X_INTRODUCED_42_);
constraint array_int_element(X_INTRODUCED_330_,X_INTRODUCED_53_,X_INTRODUCED_34_);
constraint array_int_element(X_INTRODUCED_330_,X_INTRODUCED_55_,X_INTRODUCED_43_);
constraint array_int_element(X_INTRODUCED_334_,X_INTRODUCED_53_,X_INTRODUCED_34_);
constraint array_int_element(X_INTRODUCED_334_,X_INTRODUCED_55_,X_INTRODUCED_44_);
constraint array_int_element(X_INTRODUCED_338_,X_INTRODUCED_53_,X_INTRODUCED_35_);
constraint array_int_element(X_INTRODUCED_338_,X_INTRODUCED_55_,X_INTRODUCED_41_);
constraint array_int_element(X_INTRODUCED_342_,X_INTRODUCED_53_,X_INTRODUCED_35_);
constraint array_int_element(X_INTRODUCED_342_,X_INTRODUCED_55_,X_INTRODUCED_46_);
constraint array_int_element(X_INTRODUCED_346_,X_INTRODUCED_53_,X_INTRODUCED_35_);
constraint array_int_element(X_INTRODUCED_346_,X_INTRODUCED_55_,X_INTRODUCED_47_);
constraint array_int_element(X_INTRODUCED_350_,X_INTRODUCED_53_,X_INTRODUCED_35_);
constraint array_int_element(X_INTRODUCED_350_,X_INTRODUCED_55_,X_INTRODUCED_48_);
constraint array_int_element(X_INTRODUCED_354_,X_INTRODUCED_53_,X_INTRODUCED_36_);
constraint array_int_element(X_INTRODUCED_354_,X_INTRODUCED_55_,X_INTRODUCED_37_);
constraint array_int_element(X_INTRODUCED_358_,X_INTRODUCED_53_,X_INTRODUCED_36_);
constraint array_int_element(X_INTRODUCED_358_,X_INTRODUCED_55_,X_INTRODUCED_42_);
constraint array_int_element(X_INTRODUCED_362_,X_INTRODUCED_53_,X_INTRODUCED_37_);
constraint array_int_element(X_INTRODUCED_362_,X_INTRODUCED_55_,X_INTRODUCED_42_);
constraint array_int_element(X_INTRODUCED_366_,X_INTRODUCED_53_,X_INTRODUCED_37_);
constraint array_int_element(X_INTRODUCED_366_,X_INTRODUCED_55_,X_INTRODUCED_44_);
constraint array_int_element(X_INTRODUCED_370_,X_INTRODUCED_53_,X_INTRODUCED_37_);
constraint array_int_element(X_INTRODUCED_370_,X_INTRODUCED_55_,X_INTRODUCED_48_);
constraint array_int_element(X_INTRODUCED_374_,X_INTRODUCED_53_,X_INTRODUCED_38_);
constraint array_int_element(X_INTRODUCED_374_,X_INTRODUCED_55_,X_INTRODUCED_45_);
constraint array_int_element(X_INTRODUCED_378_,X_INTRODUCED_53_,X_INTRODUCED_39_);
constraint array_int_element(X_INTRODUCED_378_,X_INTRODUCED_55_,X_INTRODUCED_45_);
constraint array_int_element(X_INTRODUCED_382_,X_INTRODUCED_53_,X_INTRODUCED_39_);
constraint array_int_element(X_INTRODUCED_382_,X_INTRODUCED_55_,X_INTRODUCED_46_);
constraint array_int_element(X_INTRODUCED_386_,X_INTRODUCED_53_,X_INTRODUCED_40_);
constraint array_int_element(X_INTRODUCED_386_,X_INTRODUCED_55_,X_INTRODUCED_42_);
constraint array_int_element(X_INTRODUCED_390_,X_INTRODUCED_53_,X_INTRODUCED_40_);
constraint array_int_element(X_INTRODUCED_390_,X_INTRODUCED_55_,X_INTRODUCED_44_);
constraint array_int_element(X_INTRODUCED_394_,X_INTRODUCED_53_,X_INTRODUCED_41_);
constraint array_int_element(X_INTRODUCED_394_,X_INTRODUCED_55_,X_INTRODUCED_45_);
constraint array_int_element(X_INTRODUCED_398_,X_INTRODUCED_53_,X_INTRODUCED_43_);
constraint array_int_element(X_INTRODUCED_398_,X_INTRODUCED_55_,X_INTRODUCED_48_);
constraint array_int_element(X_INTRODUCED_402_,X_INTRODUCED_53_,X_INTRODUCED_44_);
constraint array_int_element(X_INTRODUCED_402_,X_INTRODUCED_55_,X_INTRODUCED_46_);
constraint array_int_element(X_INTRODUCED_406_,X_INTRODUCED_53_,X_INTRODUCED_44_);
constraint array_int_element(X_INTRODUCED_406_,X_INTRODUCED_55_,X_INTRODUCED_48_);
constraint array_int_element(X_INTRODUCED_410_,X_INTRODUCED_53_,X_INTRODUCED_47_);
constraint array_int_element(X_INTRODUCED_410_,X_INTRODUCED_55_,X_INTRODUCED_48_);
solve  satisfy;
